494
171
41
132
50
61
30
46
230
0
24
45
55
610
14
102
0
41
40
0
85
141
48
20
14
88
17
27
91
0
375
25
172
59
43
19
80
428
75
23
81
55
53
30
37
29
20
18
51
25
148
22
54
0
118
30
14
78
51
32
28
49
322
89
25
0
82
64
17
0
231
13
75
40
72
0
1442
241
38
34
0
38
66
169
24
186
48
0
164
0
59
110
25
56
299
58
0
30
50
19
